37714 42659 
38000 42632 
39238 42108 
38444 42535 
38359 42603 
38044 42628 
38483 42444 
37382 42803 
37623 42688 
37297 42871 
37538 42756 
38737 42352 
38652 42420 
40055 41288 
39913 41548 
39643 41712 
38916 42294 
38386 42578 
39338 42089 
36923 42879 
37607 42709 
39209 42111 
39557 41816 
40478 40426 
41401 37959 
40146 41058 
39834 41585 
38960 42290 
39184 42154 
39253 42107 
39477 41971 
38610 42442 
39595 41720 
39724 41698 
40594 40152 
40862 40012 
41344 38667 
41032 39537 
41205 39012 
40195 40976 
39952 41334 
38695 42374 
39809 41630 
40366 40500 
40323 40539 
40196 40769 
40282 40665 
40100 41102 
40939 39614 
40598 40044 
40221 40765 
40290 40598 
40583 40415 
41047 39190 
40315 40555 
41036 39224 
